NAME          
ROWS
 N  OBJ
 L  c1
COLUMNS
    MARKER    'MARKER'                 'INTORG'
    x[1]      c1        714
    x[1]      OBJ       -696
    x[2]      c1        472
    x[2]      OBJ       -524
    x[3]      c1        624
    x[3]      OBJ       -664
    x[4]      c1        30
    x[4]      OBJ       -761
    x[5]      c1        107
    x[5]      OBJ       -972
    x[6]      c1        463
    x[6]      OBJ       -975
    x[7]      c1        434
    x[7]      OBJ       -585
    x[8]      c1        611
    x[8]      OBJ       -602
    x[9]      c1        96
    x[9]      OBJ       -584
    x[10]     c1        735
    x[10]     OBJ       -811
    x[11]     c1        345
    x[11]     OBJ       -500
    x[12]     c1        944
    x[12]     OBJ       -480
    x[13]     c1        604
    x[13]     OBJ       -238
    x[14]     c1        630
    x[14]     OBJ       -36
    x[15]     c1        965
    x[15]     OBJ       -277
    x[16]     c1        261
    x[16]     OBJ       -68
    x[17]     c1        211
    x[17]     OBJ       -682
    x[18]     c1        367
    x[18]     OBJ       -825
    x[19]     c1        974
    x[19]     OBJ       -152
    x[20]     c1        559
    x[20]     OBJ       -838
    x[21]     c1        131
    x[21]     OBJ       -410
    x[22]     c1        492
    x[22]     OBJ       -35
    x[23]     c1        581
    x[23]     OBJ       -151
    x[24]     c1        663
    x[24]     OBJ       -818
    x[25]     c1        458
    x[25]     OBJ       -175
    x[26]     c1        216
    x[26]     OBJ       -617
    x[27]     c1        399
    x[27]     OBJ       -186
    x[28]     c1        466
    x[28]     OBJ       -654
    x[29]     c1        252
    x[29]     OBJ       -684
    x[30]     c1        229
    x[30]     OBJ       -69
    x[31]     c1        110
    x[31]     OBJ       -743
    x[32]     c1        948
    x[32]     OBJ       -467
    x[33]     c1        586
    x[33]     OBJ       -773
    x[34]     c1        838
    x[34]     OBJ       -727
    x[35]     c1        920
    x[35]     OBJ       -569
    x[36]     c1        720
    x[36]     OBJ       -672
    x[37]     c1        703
    x[37]     OBJ       -387
    x[38]     c1        272
    x[38]     OBJ       -929
    x[39]     c1        423
    x[39]     OBJ       -792
    x[40]     c1        672
    x[40]     OBJ       -5
RHS
    rhs       c1        10112
RANGES
BOUNDS
 BV bounds    x[1]
 BV bounds    x[2]
 BV bounds    x[3]
 BV bounds    x[4]
 BV bounds    x[5]
 BV bounds    x[6]
 BV bounds    x[7]
 BV bounds    x[8]
 BV bounds    x[9]
 BV bounds    x[10]
 BV bounds    x[11]
 BV bounds    x[12]
 BV bounds    x[13]
 BV bounds    x[14]
 BV bounds    x[15]
 BV bounds    x[16]
 BV bounds    x[17]
 BV bounds    x[18]
 BV bounds    x[19]
 BV bounds    x[20]
 BV bounds    x[21]
 BV bounds    x[22]
 BV bounds    x[23]
 BV bounds    x[24]
 BV bounds    x[25]
 BV bounds    x[26]
 BV bounds    x[27]
 BV bounds    x[28]
 BV bounds    x[29]
 BV bounds    x[30]
 BV bounds    x[31]
 BV bounds    x[32]
 BV bounds    x[33]
 BV bounds    x[34]
 BV bounds    x[35]
 BV bounds    x[36]
 BV bounds    x[37]
 BV bounds    x[38]
 BV bounds    x[39]
 BV bounds    x[40]
ENDATA
